
Gurobi 6.0.4 (win64) logging started 06/23/15 14:04:40

Read LP format model from file C:\MT\repository\VRPTWMS\instances\mip\fuel\N14-C_DV100-C_SV30_F6_0_No_1.lp
Reading time = 0.05 seconds
(null): 1149 rows, 512 columns, 4917 nonzeros
Optimize a model with 1149 rows, 512 columns and 4917 nonzeros
Model has 2744 quadratic constraints
Coefficient statistics:
  Matrix range    [1e+00, 1e+06]
  Objective range [4e+04, 1e+07]
  Bounds range    [1e+00, 1e+06]
  RHS range       [1e+00, 1e+06]
Presolve removed 157 rows and 76 columns
Presolve time: 0.53s
Presolved: 4702 rows, 2291 columns, 26539 nonzeros
Variable types: 1855 continuous, 436 integer (379 binary)
Found heuristic solution: objective 1.471446e+08

Root relaxation: objective 1.248598e+07, 140 iterations, 0.02 seconds

    Nodes    |    Current Node    |     Objective Bounds      |     Work
 Expl Unexpl |  Obj  Depth IntInf | Incumbent    BestBd   Gap | It/Node Time

     0     0 1.2486e+07    0   46 1.4714e+08 1.2486e+07  91.5%     -    0s
H    0     0                    8.542680e+07 1.2486e+07  85.4%     -    0s
     0     0 1.2878e+07    0   41 8.5427e+07 1.2878e+07  84.9%     -    0s
     0     0 1.3016e+07    0   56 8.5427e+07 1.3016e+07  84.8%     -    0s
H    0     0                    7.498870e+07 1.3016e+07  82.6%     -    0s
     0     0 1.3327e+07    0   59 7.4989e+07 1.3327e+07  82.2%     -    0s
     0     0 1.4303e+07    0   76 7.4989e+07 1.4303e+07  80.9%     -    0s
     0     0 1.4906e+07    0   67 7.4989e+07 1.4906e+07  80.1%     -    0s
     0     0 1.4945e+07    0   67 7.4989e+07 1.4945e+07  80.1%     -    0s
     0     0 1.4950e+07    0   71 7.4989e+07 1.4950e+07  80.1%     -    0s
     0     0 1.4950e+07    0   74 7.4989e+07 1.4950e+07  80.1%     -    1s
     0     0 1.4950e+07    0   69 7.4989e+07 1.4950e+07  80.1%     -    1s
     0     0 1.4950e+07    0   72 7.4989e+07 1.4950e+07  80.1%     -    1s
     0     0 1.4950e+07    0   72 7.4989e+07 1.4950e+07  80.1%     -    1s
     0     0 1.4950e+07    0   72 7.4989e+07 1.4950e+07  80.1%     -    1s
     0     2 1.4950e+07    0   72 7.4989e+07 1.4950e+07  80.1%     -    1s
H   48    51                    7.457470e+07 2.2537e+07  69.8%  23.4    1s
H   90    80                    6.417610e+07 2.2537e+07  64.9%  22.5    1s
H  156   107                    6.413670e+07 2.2537e+07  64.9%  18.4    1s
H  201   140                    5.394440e+07 2.2761e+07  57.8%  18.0    1s
H  259   177                    5.372320e+07 2.2761e+07  57.6%  17.5    1s
H  348   228                    5.364510e+07 2.2761e+07  57.6%  16.9    1s
H  417   264                    5.358760e+07 2.2912e+07  57.2%  17.3    1s
H  474   305                    5.337270e+07 2.2912e+07  57.1%  17.0    1s
H  736   445                    5.335870e+07 2.2968e+07  57.0%  16.7    1s
H  900   447                    4.308920e+07 2.3052e+07  46.5%  16.4    1s

Cutting planes:
  Learned: 1
  Clique: 8
  MIR: 5
  GUB cover: 9

Explored 2111 nodes (43905 simplex iterations) in 4.38 seconds
Thread count was 2 (of 4 available processors)

Optimal solution found (tolerance 1.00e-04)
Best objective 4.308920000000e+07, best bound 4.308920000000e+07, gap 0.0%
k_c1	60000.0
k_c10	1000000.0
k_c11	1000000.0
k_c12	959999.0
k_c13	979999.0
k_c14	30000.0
k_c2	939999.0
k_c3	60000.0
k_c4	80000.0
k_c5	120001.0
k_c6	1000000.0
k_c7	1000000.0
k_c8	949999.0
k_c9	20000.0
k_dN	-0.0
o_1	0.0
o_10	0.0
o_11	0.0
o_12	0.0
o_13	0.0
o_14	0.0
o_2	0.0
o_3	0.0
o_4	0.0
o_5	0.0
o_6	0.0
o_7	0.0
o_8	0.0
o_9	0.0
p_1	0.0
p_10	0.0
p_11	0.0
p_12	0.0
p_13	0.0
p_14	0.0
p_2	0.0
p_3	0.0
p_4	0.0
p_5	0.0
p_6	0.0
p_7	0.0
p_8	0.0
p_9	0.0
phi_c1	15400.0
phi_c10	50052.0
phi_c11	41495.0
phi_c12	34879.0
phi_c13	39863.0
phi_c14	15578.0
phi_c2	38331.0
phi_c3	27001.0
phi_c4	18745.0
phi_c5	24498.0
phi_c6	45329.0
phi_c7	43723.0
phi_c8	34136.0
phi_c9	16110.0
phi_d0	60000.0
phi_dN	-0.0
tauD_c1	800000.0
tauD_c10	100000.0
tauD_c11	69150.0
tauD_c12	324500.0
tauD_c13	250000.0
tauD_c14	450000.0
tauD_c2	250000.0
tauD_c3	699299.0
tauD_c4	600000.0
tauD_c5	400000.0
tauD_c6	215449.0
tauD_c7	60825.0
tauD_c8	650000.0
tauD_c9	800000.0
tauD_d0	-0.0
tauD_dN	1000000.0
tauS_c1	862450.0
tauS_c10	882825.0
tauS_c11	850850.0
tauS_c12	828450.0
tauS_c13	845800.0
tauS_c14	896275.0
tauS_c2	856700.0
tauS_c3	819100.0
tauS_c4	865175.0
tauS_c5	843800.0
tauS_c6	865175.0
tauS_c7	859175.0
tauS_c8	851350.0
tauS_c9	859800.0
tauS_d0	-0.0
tauS_dN	1000000.0
x_c10_c13	1.0
x_c11_c8	1.0
x_c12_c5	1.0
x_c13_c3	1.0
x_c14_dN	1.0
x_c1_dN	1.0
x_c2_c14	1.0
x_c3_c9	1.0
x_c4_c1	1.0
x_c5_c4	1.0
x_c6_c12	1.0
x_c7_c2	1.0
x_c8_dN	1.0
x_c9_dN	1.0
x_d0_c10	1.0
x_d0_c11	1.0
x_d0_c6	1.0
x_d0_c7	1.0
